c Random generated cnf formula, satisfiable: false
p cnf 10 50
2 -6 5 0
5 2 4 0
-6 -9 5 0
2 9 -1 0
-7 -2 -10 0
-8 3 6 0
-4 1 9 0
8 7 10 0
3 -4 2 0
10 5 8 0
2 -5 -8 0
7 1 2 0
9 6 10 0
3 10 -1 0
5 7 -2 0
1 -7 -6 0
-9 -5 8 0
7 -3 -6 0
-5 -9 4 0
-5 10 7 0
8 4 7 0
-3 5 -10 0
-10 -6 -9 0
4 3 -9 0
1 -10 -9 0
-3 5 10 0
6 2 -3 0
10 -9 -5 0
4 8 -2 0
3 -2 -4 0
-8 -1 -5 0
9 3 -8 0
4 -10 -2 0
1 6 -4 0
-2 -4 10 0
7 5 2 0
2 -6 -10 0
-7 -2 3 0
-8 -5 4 0
-9 -8 -3 0
8 -6 -3 0
7 2 9 0
-4 -8 5 0
10 -9 2 0
2 8 4 0
-1 -2 -10 0
6 5 -10 0
6 -5 -9 0
-5 -1 8 0
-2 -9 -3 0
